
Gurobi 9.5.0 (linux64) logging started Sat Nov  4 11:40:39 2023

Set parameter LogFile to value "/lustre1/scratch/348/vsc34888/JointResearch/05.Models/06.Benchmarking/E.Representative_days_based_on_Line_Benefits_OptModel/RTS24_ByStages_nc80/openStarNet_RTS24_ByStages_nc80.log"
Set parameter Method to value 2
Set parameter MIPFocus to value 1
Set parameter Presolve to value 2
Set parameter RINS to value 100
Set parameter MIPGap to value 0.01
Set parameter Threads to value 36
Set parameter TimeLimit to value 604800
Set parameter IterationLimit to value 760000000
Gurobi Optimizer version 9.5.0 build v9.5.0rc5 (linux64)
Thread count: 36 physical cores, 36 logical processors, using up to 36 threads
Optimize a model with 35603 rows, 20184 columns and 97003 nonzeros
Model fingerprint: 0x622db1eb
Variable types: 20145 continuous, 39 integer (39 binary)
Coefficient statistics:
  Matrix range     [1e-03, 2e+03]
  Objective range  [1e+00, 1e+00]
  Bounds range     [4e-04, 3e+00]
  RHS range        [4e-04, 3e+00]
Presolve removed 17363 rows and 8551 columns
Presolve time: 0.18s
Presolved: 18240 rows, 11633 columns, 63354 nonzeros
Variable types: 11594 continuous, 39 integer (39 binary)
Found heuristic solution: objective 147.8965801
Root relaxation presolved: 18240 rows, 11633 columns, 63354 nonzeros

Root barrier log...

Ordering time: 0.01s

Barrier statistics:
 Dense cols : 39
 AA' NZ     : 1.350e+05
 Factor NZ  : 4.366e+05 (roughly 16 MB of memory)
 Factor Ops : 1.306e+07 (less than 1 second per iteration)
 Threads    : 36

                  Objective                Residual
Iter       Primal          Dual         Primal    Dual     Compl     Time
   0   5.95928411e+05 -1.90675803e+08  4.41e+00 5.36e+02  1.47e+04     0s
   1   6.28822829e+04 -5.07495122e+07  4.09e-01 1.07e-08  1.88e+03     0s
   2   1.60709155e+04 -5.28189875e+06  1.14e-02 3.33e-09  1.47e+02     0s
   3   1.01632355e+04 -4.11273182e+05  6.43e-13 2.31e-10  1.14e+01     0s
   4   2.96115350e+03 -4.43184549e+04  5.47e-13 1.57e-11  1.28e+00     0s
   5   1.18602798e+03 -1.21041383e+04  3.85e-13 3.88e-12  3.61e-01     1s
   6   4.86190416e+02 -3.50828604e+03  2.29e-13 1.82e-12  1.08e-01     1s
   7   3.19554507e+02 -1.24309861e+03  2.52e-13 3.64e-12  4.24e-02     1s
   8   2.29053528e+02 -4.34111549e+02  1.81e-13 1.82e-12  1.80e-02     1s
   9   1.71990920e+02 -1.14563313e+02  1.76e-13 3.64e-12  7.77e-03     1s
  10   1.36827986e+02 -2.39264857e+01  6.51e-13 1.82e-12  4.36e-03     1s
  11   1.18950587e+02  6.87826043e+01  8.55e-13 3.64e-12  1.36e-03     1s
  12   1.05873128e+02  8.04228274e+01  5.81e-12 1.82e-12  6.90e-04     1s
  13   1.03483059e+02  8.68974087e+01  7.01e-12 1.82e-12  4.50e-04     1s
  14   1.02917242e+02  8.70105276e+01  7.15e-12 1.82e-12  4.31e-04     1s
  15   1.00796586e+02  8.95338329e+01  4.94e-12 1.82e-12  3.06e-04     1s
  16   9.84815753e+01  9.22387699e+01  6.91e-12 1.82e-12  1.69e-04     1s
  17   9.57231818e+01  9.30878832e+01  7.23e-12 1.82e-12  7.15e-05     1s
  18   9.50512364e+01  9.36965182e+01  1.16e-11 1.82e-12  3.67e-05     1s
  19   9.46339931e+01  9.39510066e+01  3.33e-11 1.82e-12  1.85e-05     1s
  20   9.43640391e+01  9.41491612e+01  1.23e-11 1.82e-12  5.83e-06     1s
  21   9.42941827e+01  9.41708218e+01  6.38e-12 1.82e-12  3.35e-06     1s
  22   9.42366365e+01  9.41832670e+01  2.51e-12 3.64e-12  1.45e-06     1s
  23   9.42175652e+01  9.42078987e+01  1.20e-12 3.64e-12  2.62e-07     1s
  24   9.42139837e+01  9.42122328e+01  1.50e-09 1.82e-12  4.75e-08     1s
  25   9.42133883e+01  9.42130055e+01  1.47e-09 3.64e-12  1.04e-08     1s
  26   9.42131429e+01  9.42131309e+01  4.03e-09 3.64e-12  3.26e-10     1s
  27   9.42131387e+01  9.42131387e+01  1.38e-10 3.64e-12  6.41e-15     1s

Barrier solved model in 27 iterations and 0.75 seconds (0.66 work units)
Optimal objective 9.42131387e+01


Root relaxation: objective 9.421314e+01, 1406 iterations, 0.49 seconds (0.32 work units)

    Nodes    |    Current Node    |     Objective Bounds      |     Work
 Expl Unexpl |  Obj  Depth IntInf | Incumbent    BestBd   Gap | It/Node Time

     0     0   94.21314    0   11  147.89658   94.21314  36.3%     -    0s
H    0     0                     121.0950775   94.21314  22.2%     -    1s
     0     0   96.86868    0   10  121.09508   96.86868  20.0%     -    1s
H    0     0                     107.3428801   96.86868  9.76%     -    1s
     0     0   97.97387    0    9  107.34288   97.97387  8.73%     -    1s
     0     0   98.41180    0   10  107.34288   98.41180  8.32%     -    1s
H    0     0                     107.1109748   98.41180  8.12%     -    1s
     0     0   98.49832    0   11  107.11097   98.49832  8.04%     -    2s
     0     0   98.51190    0   11  107.11097   98.51190  8.03%     -    2s
     0     0   98.51190    0   11  107.11097   98.51190  8.03%     -    2s
     0     0   98.93767    0    8  107.11097   98.93767  7.63%     -    2s
     0     0   98.93767    0    8  107.11097   98.93767  7.63%     -    2s
     0     0   98.93836    0    8  107.11097   98.93836  7.63%     -    2s
     0     0   98.93836    0    8  107.11097   98.93836  7.63%     -    3s
     0     0   98.93845    0    8  107.11097   98.93845  7.63%     -    3s
     0     2   98.93845    0    8  107.11097   98.93845  7.63%     -    5s
H  115    68                     106.3107471  102.34503  3.73%   260   11s
   151    59     cutoff    9       106.31075  103.34341  2.79%   240   15s
   289    74  105.60276   13    2  106.31075  103.34341  2.79%   208   20s

Cutting planes:
  Gomory: 5
  Implied bound: 2
  MIR: 495

Explored 597 nodes (107831 simplex iterations) in 21.50 seconds (26.95 work units)
Thread count was 36 (of 36 available processors)

Solution count 5: 106.311 107.111 107.343 ... 147.897

Optimal solution found (tolerance 1.00e-02)
Best objective 1.063107471214e+02, best bound 1.055714639678e+02, gap 0.6954%

Gurobi 9.5.0 (linux64) logging started Sat Nov  4 11:41:05 2023

Set parameter LogFile to value "/lustre1/scratch/348/vsc34888/JointResearch/05.Models/06.Benchmarking/E.Representative_days_based_on_Line_Benefits_OptModel/RTS24_ByStages_nc80/openStarNet_RTS24_ByStages_nc80.log"
Set parameter Method to value 2
Set parameter MIPFocus to value 1
Set parameter Presolve to value 2
Set parameter RINS to value 100
Set parameter MIPGap to value 0.01
Set parameter Threads to value 36
Set parameter TimeLimit to value 604800
Set parameter IterationLimit to value 760000000
No parameters matching 'relax_integrality' found
Gurobi Optimizer version 9.5.0 build v9.5.0rc5 (linux64)
Thread count: 36 physical cores, 36 logical processors, using up to 36 threads
Optimize a model with 35603 rows, 20145 columns and 84484 nonzeros
Model fingerprint: 0x7eb77b67
Coefficient statistics:
  Matrix range     [1e-03, 2e+03]
  Objective range  [1e+00, 1e+00]
  Bounds range     [4e-04, 3e+00]
  RHS range        [4e-04, 3e+01]
Presolve removed 28164 rows and 9353 columns
Presolve time: 0.04s
Presolved: 7439 rows, 10952 columns, 27270 nonzeros

Ordering time: 0.00s

Barrier statistics:
 AA' NZ     : 1.904e+04
 Factor NZ  : 8.142e+04 (roughly 7 MB of memory)
 Factor Ops : 1.236e+06 (less than 1 second per iteration)
 Threads    : 36

                  Objective                Residual
Iter       Primal          Dual         Primal    Dual     Compl     Time
   0   1.13963055e+06 -1.20755682e+09  3.81e+00 1.22e+03  1.27e+05     0s
   1   9.64809310e+04 -1.82050878e+08  2.90e-01 1.01e-10  1.25e+04     0s
   2   4.23612635e+04 -2.04492663e+07  7.66e-02 1.07e-10  1.29e+03     0s
   3   2.41609349e+04 -1.83063382e+06  6.54e-04 8.73e-11  9.92e+01     0s
   4   1.48945214e+04 -2.71965251e+05  6.21e-05 8.73e-11  1.53e+01     0s
   5   6.39519345e+03 -6.88067704e+04  1.27e-05 2.91e-11  4.01e+00     0s
   6   3.18501452e+03 -2.23830191e+04  4.23e-06 2.91e-11  1.36e+00     0s
   7   1.13528526e+03 -6.12395972e+03  7.90e-07 2.91e-11  3.87e-01     0s
   8   3.97837520e+02 -1.94563399e+03  9.47e-08 2.91e-11  1.25e-01     0s
   9   2.53484846e+02 -5.68921309e+02  4.03e-08 1.46e-11  4.38e-02     0s
  10   1.83394353e+02 -1.20184844e+02  1.79e-08 1.46e-11  1.62e-02     0s
  11   1.40615740e+02  1.05453467e+01  6.93e-09 2.91e-11  6.93e-03     0s
  12   1.22475013e+02  6.25919952e+01  2.95e-09 2.91e-11  3.19e-03     0s
  13   1.14347071e+02  8.83727473e+01  1.33e-09 2.91e-11  1.38e-03     0s
  14   1.10061963e+02  9.84261711e+01  5.80e-10 1.46e-11  6.20e-04     0s
  15   1.08122802e+02  1.02011157e+02  2.64e-10 2.91e-11  3.26e-04     0s
  16   1.06757181e+02  1.05312681e+02  5.73e-11 1.46e-11  7.70e-05     0s
  17   1.06505337e+02  1.06053029e+02  2.43e-11 1.46e-11  2.41e-05     0s
  18   1.06345258e+02  1.06270782e+02  4.14e-12 1.46e-11  3.97e-06     0s
  19   1.06311283e+02  1.06310411e+02  3.54e-11 7.28e-12  4.65e-08     0s
  20   1.06310748e+02  1.06310747e+02  1.08e-10 2.91e-11  5.04e-11     0s
  21   1.06310747e+02  1.06310747e+02  1.06e-09 1.46e-11  5.11e-16     0s

Barrier solved model in 21 iterations and 0.18 seconds (0.11 work units)
Optimal objective 1.06310747e+02

Crossover log...

     910 DPushes remaining with DInf 0.0000000e+00                 0s
       0 DPushes remaining with DInf 0.0000000e+00                 0s

     588 PPushes remaining with PInf 0.0000000e+00                 0s
       0 PPushes remaining with PInf 0.0000000e+00                 0s

  Push phase complete: Pinf 0.0000000e+00, Dinf 3.6353745e-12      0s

Iteration    Objective       Primal Inf.    Dual Inf.      Time
     675    1.0631075e+02   0.000000e+00   0.000000e+00      0s

Use crossover to convert LP symmetric solution to basic solution...
Crossover log...

       0 DPushes remaining with DInf 0.0000000e+00                 0s

     343 PPushes remaining with PInf 0.0000000e+00                 0s
       0 PPushes remaining with PInf 0.0000000e+00                 0s

  Push phase complete: Pinf 0.0000000e+00, Dinf 1.3900070e-12      0s

Iteration    Objective       Primal Inf.    Dual Inf.      Time
    1023    1.0631075e+02   0.000000e+00   0.000000e+00      0s

Solved in 1023 iterations and 0.26 seconds (0.15 work units)
Optimal objective  1.063107471e+02

Gurobi 9.5.0 (linux64) logging started Sat Nov  4 12:09:18 2023

Set parameter LogFile to value "/lustre1/scratch/348/vsc34888/JointResearch/05.Models/06.Benchmarking/E.Representative_days_based_on_Line_Benefits_OptModel/RTS24_ByStages_nc80/openStarNet_RTS24_ByStages_nc80.log"
Set parameter Method to value 2
Set parameter MIPFocus to value 1
Set parameter Presolve to value 2
Set parameter RINS to value 100
Set parameter MIPGap to value 0.01
Set parameter Threads to value 36
Set parameter TimeLimit to value 604800
Set parameter IterationLimit to value 760000000
Gurobi Optimizer version 9.5.0 build v9.5.0rc5 (linux64)
Thread count: 36 physical cores, 36 logical processors, using up to 36 threads
Optimize a model with 35603 rows, 20184 columns and 97003 nonzeros
Model fingerprint: 0x92e628be
Variable types: 20145 continuous, 39 integer (39 binary)
Coefficient statistics:
  Matrix range     [1e-03, 2e+03]
  Objective range  [1e+00, 1e+00]
  Bounds range     [4e-04, 3e+00]
  RHS range        [4e-04, 3e+00]
Presolve removed 17363 rows and 8551 columns
Presolve time: 0.18s
Presolved: 18240 rows, 11633 columns, 63354 nonzeros
Variable types: 11594 continuous, 39 integer (39 binary)
Found heuristic solution: objective 147.8965801
Root relaxation presolved: 18240 rows, 11633 columns, 63354 nonzeros

Root barrier log...

Ordering time: 0.01s

Barrier statistics:
 Dense cols : 39
 AA' NZ     : 1.350e+05
 Factor NZ  : 4.524e+05 (roughly 16 MB of memory)
 Factor Ops : 1.424e+07 (less than 1 second per iteration)
 Threads    : 36

                  Objective                Residual
Iter       Primal          Dual         Primal    Dual     Compl     Time
   0   5.95928411e+05 -1.90675803e+08  4.41e+00 5.36e+02  1.47e+04     0s
   1   6.28822829e+04 -5.07495122e+07  4.09e-01 1.07e-08  1.88e+03     0s
   2   1.60709155e+04 -5.28189875e+06  1.14e-02 3.21e-09  1.47e+02     0s
   3   1.01632355e+04 -4.11273182e+05  6.31e-13 2.41e-10  1.14e+01     1s
   4   2.96115350e+03 -4.43184549e+04  6.81e-13 1.84e-11  1.28e+00     1s
   5   1.18602798e+03 -1.21041383e+04  3.80e-13 4.48e-12  3.61e-01     1s
   6   4.86190416e+02 -3.50828604e+03  2.83e-13 3.64e-12  1.08e-01     1s
   7   3.19554507e+02 -1.24309861e+03  2.43e-13 1.82e-12  4.24e-02     1s
   8   2.29053528e+02 -4.34111549e+02  1.87e-13 1.82e-12  1.80e-02     1s
   9   1.71990920e+02 -1.14563313e+02  2.10e-13 1.82e-12  7.77e-03     1s
  10   1.36827986e+02 -2.39264857e+01  4.62e-13 1.82e-12  4.36e-03     1s
  11   1.18950587e+02  6.87826043e+01  5.78e-13 3.64e-12  1.36e-03     1s
  12   1.05873128e+02  8.04228274e+01  1.91e-12 1.82e-12  6.90e-04     1s
  13   1.03483059e+02  8.68974087e+01  3.09e-12 1.82e-12  4.50e-04     1s
  14   1.02917242e+02  8.70105276e+01  3.15e-12 1.82e-12  4.31e-04     1s
  15   1.00796586e+02  8.95338329e+01  2.22e-12 1.82e-12  3.06e-04     1s
  16   9.84815754e+01  9.22387698e+01  5.57e-12 3.64e-12  1.69e-04     1s
  17   9.57231820e+01  9.30878831e+01  6.80e-12 1.82e-12  7.15e-05     1s
  18   9.50512366e+01  9.36965181e+01  7.20e-12 1.82e-12  3.67e-05     1s
  19   9.46339932e+01  9.39510066e+01  1.92e-11 1.82e-12  1.85e-05     1s
  20   9.43640391e+01  9.41491611e+01  6.99e-12 1.82e-12  5.83e-06     1s
  21   9.42941827e+01  9.41708218e+01  3.63e-12 1.82e-12  3.35e-06     1s
  22   9.42366362e+01  9.41832670e+01  7.57e-12 1.82e-12  1.45e-06     1s
  23   9.42175654e+01  9.42078987e+01  5.61e-09 1.82e-12  2.62e-07     1s
  24   9.42139837e+01  9.42122327e+01  1.50e-09 1.82e-12  4.75e-08     1s
  25   9.42133884e+01  9.42130055e+01  1.47e-09 3.64e-12  1.04e-08     1s
  26   9.42131430e+01  9.42131309e+01  1.99e-09 3.64e-12  3.26e-10     1s
  27   9.42131387e+01  9.42131387e+01  1.64e-10 3.64e-12  1.33e-14     1s

Barrier solved model in 27 iterations and 0.80 seconds (0.66 work units)
Optimal objective 9.42131387e+01


Root relaxation: objective 9.421314e+01, 1407 iterations, 0.55 seconds (0.32 work units)

    Nodes    |    Current Node    |     Objective Bounds      |     Work
 Expl Unexpl |  Obj  Depth IntInf | Incumbent    BestBd   Gap | It/Node Time

     0     0   94.21314    0   11  147.89658   94.21314  36.3%     -    1s
H    0     0                     121.0950775   94.21314  22.2%     -    1s
     0     0   98.81741    0   10  121.09508   98.81741  18.4%     -    1s
H    0     0                     108.6816717   98.81741  9.08%     -    1s
     0     0   98.89344    0   10  108.68167   98.89344  9.01%     -    1s
H    0     0                     107.1109748   98.89344  7.67%     -    2s
     0     0   99.13392    0   10  107.11097   99.13392  7.45%     -    2s
     0     0   99.13392    0   10  107.11097   99.13392  7.45%     -    2s
     0     0   99.20287    0   11  107.11097   99.20287  7.38%     -    2s
     0     0   99.20885    0   11  107.11097   99.20885  7.38%     -    2s
     0     0   99.20885    0   11  107.11097   99.20885  7.38%     -    2s
     0     0   99.22153    0   11  107.11097   99.22153  7.37%     -    3s
     0     0   99.22153    0   11  107.11097   99.22153  7.37%     -    3s
H    0     0                     106.3107471   99.22153  6.67%     -    8s
     0     2   99.22153    0   11  106.31075   99.22153  6.67%     -    8s
   107    56     cutoff    8       106.31075  103.35746  2.78%   238   17s
   143    64  104.48140    9    3  106.31075  103.36168  2.77%   226   25s
   443    37  106.15487   11    5  106.31075  104.74346  1.47%   183   35s

Cutting planes:
  Gomory: 3
  MIR: 634
  Relax-and-lift: 1

Explored 553 nodes (95715 simplex iterations) in 35.67 seconds (37.97 work units)
Thread count was 36 (of 36 available processors)

Solution count 5: 106.311 107.111 108.682 ... 147.897

Optimal solution found (tolerance 1.00e-02)
Best objective 1.063107471214e+02, best bound 1.063107471214e+02, gap 0.0000%

Gurobi 9.5.0 (linux64) logging started Sat Nov  4 12:09:58 2023

Set parameter LogFile to value "/lustre1/scratch/348/vsc34888/JointResearch/05.Models/06.Benchmarking/E.Representative_days_based_on_Line_Benefits_OptModel/RTS24_ByStages_nc80/openStarNet_RTS24_ByStages_nc80.log"
Set parameter Method to value 2
Set parameter MIPFocus to value 1
Set parameter Presolve to value 2
Set parameter RINS to value 100
Set parameter MIPGap to value 0.01
Set parameter Threads to value 36
Set parameter TimeLimit to value 604800
Set parameter IterationLimit to value 760000000
No parameters matching 'relax_integrality' found
Gurobi Optimizer version 9.5.0 build v9.5.0rc5 (linux64)
Thread count: 36 physical cores, 36 logical processors, using up to 36 threads
Optimize a model with 35603 rows, 20145 columns and 84484 nonzeros
Model fingerprint: 0x3aadb87a
Coefficient statistics:
  Matrix range     [1e-03, 2e+03]
  Objective range  [1e+00, 1e+00]
  Bounds range     [4e-04, 3e+00]
  RHS range        [4e-04, 3e+01]
Presolve removed 28164 rows and 9353 columns
Presolve time: 0.04s
Presolved: 7439 rows, 10952 columns, 27270 nonzeros

Ordering time: 0.00s

Barrier statistics:
 AA' NZ     : 1.922e+04
 Factor NZ  : 8.153e+04 (roughly 7 MB of memory)
 Factor Ops : 1.238e+06 (less than 1 second per iteration)
 Threads    : 36

                  Objective                Residual
Iter       Primal          Dual         Primal    Dual     Compl     Time
   0   6.58236127e+05 -5.82828351e+08  5.74e+00 2.69e+03  6.11e+04     0s
   1   7.40811385e+04 -8.80882689e+07  4.76e-01 4.59e-11  6.13e+03     0s
   2   3.91932657e+04 -8.69045246e+06  1.33e-01 4.37e-11  5.71e+02     0s
   3   2.13846471e+04 -8.81565990e+05  5.47e-03 2.75e-11  4.88e+01     0s
   4   7.73465074e+03 -1.01792040e+05  6.09e-04 9.30e-10  5.84e+00     0s
   5   3.92558991e+03 -2.60367593e+04  1.99e-04 2.20e-10  1.60e+00     0s
   6   1.70938707e+03 -8.01307158e+03  5.85e-05 6.39e-11  5.18e-01     0s
   7   5.19914331e+02 -2.11804950e+03  7.71e-06 1.75e-11  1.41e-01     0s
   8   3.29912988e+02 -6.05981775e+02  3.39e-06 5.37e-12  4.98e-02     0s
   9   2.38183821e+02 -2.59686030e+02  1.86e-06 1.46e-11  2.65e-02     0s
  10   1.48497286e+02 -2.73041782e+00  4.75e-07 3.64e-12  8.05e-03     0s
  11   1.23547092e+02  7.10348333e+01  1.73e-07 3.64e-12  2.80e-03     0s
  12   1.13446702e+02  9.36355179e+01  6.41e-08 1.82e-12  1.06e-03     0s
  13   1.09455556e+02  1.00835759e+02  2.64e-08 1.46e-11  4.59e-04     0s
  14   1.07869163e+02  1.04350939e+02  1.24e-08 7.28e-12  1.87e-04     0s
  15   1.06895885e+02  1.05790824e+02  4.57e-09 1.46e-11  5.89e-05     0s
  16   1.06429240e+02  1.06183394e+02  8.64e-10 7.28e-12  1.31e-05     0s
  17   1.06362395e+02  1.06284317e+02  3.71e-10 7.28e-12  4.16e-06     0s
  18   1.06311277e+02  1.06310298e+02  8.76e-12 1.46e-11  5.22e-08     0s
  19   1.06310748e+02  1.06310747e+02  2.24e-12 2.91e-11  5.23e-11     0s
  20   1.06310747e+02  1.06310747e+02  1.18e-12 3.64e-12  5.23e-14     0s

Barrier solved model in 20 iterations and 0.17 seconds (0.11 work units)
Optimal objective 1.06310747e+02

Crossover log...

     861 DPushes remaining with DInf 0.0000000e+00                 0s
       0 DPushes remaining with DInf 0.0000000e+00                 0s

     609 PPushes remaining with PInf 0.0000000e+00                 0s
       0 PPushes remaining with PInf 0.0000000e+00                 0s

  Push phase complete: Pinf 0.0000000e+00, Dinf 3.4355925e-12      0s

Iteration    Objective       Primal Inf.    Dual Inf.      Time
     617    1.0631075e+02   0.000000e+00   0.000000e+00      0s

Use crossover to convert LP symmetric solution to basic solution...
Crossover log...

       0 DPushes remaining with DInf 0.0000000e+00                 0s

     328 PPushes remaining with PInf 0.0000000e+00                 0s
       0 PPushes remaining with PInf 0.0000000e+00                 0s

  Push phase complete: Pinf 0.0000000e+00, Dinf 1.8455200e-12      0s

Iteration    Objective       Primal Inf.    Dual Inf.      Time
     951    1.0631075e+02   0.000000e+00   0.000000e+00      0s

Solved in 951 iterations and 0.25 seconds (0.15 work units)
Optimal objective  1.063107471e+02

Gurobi 11.0.0 (linux64) logging started Wed Apr 10 22:11:40 2024

Set parameter LogFile to value "/lustre1/scratch/348/vsc34888/JointResearch/05.Models/06.Benchmarking/E.Representative_days_based_on_Line_Benefits_OptModel/RTS24_ByStages_nc80/openStarNet_RTS24_ByStages_nc80.log"
Set parameter Method to value 2
Set parameter MIPFocus to value 1
Set parameter Presolve to value 2
Set parameter RINS to value 100
Set parameter MIPGap to value 0.01
Set parameter Threads to value 36
Set parameter TimeLimit to value 259200
Set parameter IterationLimit to value 760000000
Gurobi Optimizer version 11.0.0 build v11.0.0rc2 (linux64 - "Rocky Linux 8.8 (Green Obsidian)")

CPU model: Intel(R) Xeon(R) Gold 6240 CPU @ 2.60GHz, instruction set [SSE2|AVX|AVX2|AVX512]
Thread count: 36 physical cores, 36 logical processors, using up to 36 threads

Optimize a model with 31123 rows, 18767 columns and 83490 nonzeros
Model fingerprint: 0x1220d5fe
Variable types: 18737 continuous, 30 integer (30 binary)
Coefficient statistics:
  Matrix range     [1e-03, 9e+02]
  Objective range  [1e+00, 1e+00]
  Bounds range     [4e-04, 3e+00]
  RHS range        [4e-04, 3e+00]
Presolve removed 16697 rows and 8855 columns
Presolve time: 0.18s
Presolved: 14426 rows, 9912 columns, 50868 nonzeros
Variable types: 9882 continuous, 30 integer (30 binary)
Found heuristic solution: objective 316.7080643
Root relaxation presolved: 14426 rows, 9912 columns, 50868 nonzeros

Root barrier log...

Ordering time: 0.01s

Barrier statistics:
 Dense cols : 30
 AA' NZ     : 1.067e+05
 Factor NZ  : 2.782e+05 (roughly 12 MB of memory)
 Factor Ops : 5.923e+06 (less than 1 second per iteration)
 Threads    : 36

                  Objective                Residual
Iter       Primal          Dual         Primal    Dual     Compl     Time
   0   8.04302771e+05 -1.54487441e+08  7.04e+00 3.55e+02  1.50e+04     0s
   1   1.41112279e+05 -4.55838680e+07  9.94e-01 7.00e-09  2.25e+03     0s
   2   4.95519949e+04 -6.81502183e+06  1.66e-01 2.36e-09  2.67e+02     0s
   3   2.89013878e+04 -5.96160012e+05  2.48e-03 7.71e-11  2.06e+01     0s
   4   1.20935454e+04 -8.65859779e+04  1.22e-05 5.35e-11  3.24e+00     0s
   5   4.00753718e+03 -2.21124308e+04  3.39e-06 1.03e-11  8.57e-01     0s
   6   1.58324290e+03 -7.77582190e+03  9.50e-07 3.46e-12  3.07e-01     0s
   7   8.19410757e+02 -2.21308245e+03  3.02e-07 9.09e-13  9.95e-02     0s
   8   5.60883092e+02 -3.54049457e+02  1.53e-07 1.82e-12  3.00e-02     0s
   9   3.67434362e+02 -4.06358220e+01  6.78e-08 1.82e-12  1.34e-02     0s
  10   2.75866749e+02  1.01821112e+02  3.11e-08 1.82e-12  5.71e-03     0s
  11   2.27946549e+02  1.62036387e+02  1.28e-08 1.82e-12  2.16e-03     0s
  12   2.04909738e+02  1.80078219e+02  4.31e-09 1.82e-12  8.15e-04     0s
  13   1.99441398e+02  1.82920545e+02  2.34e-09 1.82e-12  5.42e-04     0s
  14   1.97473726e+02  1.85354701e+02  1.64e-09 9.09e-13  3.98e-04     0s
  15   1.96338739e+02  1.87512364e+02  1.23e-09 1.82e-12  2.90e-04     0s
  16   1.95032707e+02  1.90130713e+02  7.58e-10 1.82e-12  1.61e-04     0s
  17   1.94336965e+02  1.91035435e+02  4.99e-10 1.82e-12  1.08e-04     1s
  18   1.93654596e+02  1.91822753e+02  2.72e-10 1.82e-12  6.01e-05     1s
  19   1.93220857e+02  1.92317837e+02  1.21e-10 1.82e-12  2.96e-05     1s
  20   1.93063078e+02  1.92710075e+02  6.89e-11 1.82e-12  1.16e-05     1s
  21   1.92898383e+02  1.92789205e+02  2.48e-11 9.09e-13  3.58e-06     1s
  22   1.92871297e+02  1.92823925e+02  8.17e-12 9.09e-13  1.55e-06     1s
  23   1.92864111e+02  1.92845149e+02  2.98e-09 1.82e-12  6.22e-07     1s
  24   1.92861104e+02  1.92853557e+02  1.24e-09 1.82e-12  2.48e-07     1s
  25   1.92859683e+02  1.92858463e+02  3.36e-10 1.82e-12  4.00e-08     1s
  26   1.92859349e+02  1.92859233e+02  1.88e-10 1.82e-12  3.82e-09     1s
  27   1.92859320e+02  1.92859317e+02  4.38e-11 9.09e-13  9.02e-11     1s
  28   1.92859319e+02  1.92859319e+02  5.05e-11 1.82e-12  2.27e-13     1s

Barrier solved model in 28 iterations and 0.61 seconds (0.57 work units)
Optimal objective 1.92859319e+02


Root relaxation: objective 1.928593e+02, 2020 iterations, 0.41 seconds (0.25 work units)

    Nodes    |    Current Node    |     Objective Bounds      |     Work
 Expl Unexpl |  Obj  Depth IntInf | Incumbent    BestBd   Gap | It/Node Time

     0     0  192.85932    0   23  316.70806  192.85932  39.1%     -    0s
H    0     0                     278.6436867  195.90208  29.7%     -    1s
     0     0  195.90208    0   19  278.64369  195.90208  29.7%     -    1s
     0     0  196.10079    0   19  278.64369  196.10079  29.6%     -    1s
     0     0  196.15841    0   21  278.64369  196.15841  29.6%     -    2s
     0     0  196.15876    0   21  278.64369  196.15876  29.6%     -    2s
H    0     0                     260.8715754  196.15876  24.8%     -    2s
     0     0  196.77811    0   21  260.87158  196.77811  24.6%     -    2s
H    0     0                     254.0549303  196.88696  22.5%     -    3s
     0     0  196.88696    0   21  254.05493  196.88696  22.5%     -    3s
     0     0  196.92116    0   20  254.05493  196.92116  22.5%     -    3s
     0     0  196.92292    0   22  254.05493  196.92292  22.5%     -    3s
     0     0  196.92293    0   22  254.05493  196.92293  22.5%     -    3s
     0     0  197.14491    0   20  254.05493  197.14491  22.4%     -    3s
     0     0  197.15105    0   20  254.05493  197.15105  22.4%     -    4s
     0     0  197.15227    0   21  254.05493  197.15227  22.4%     -    4s
     0     0  197.15237    0   21  254.05493  197.15237  22.4%     -    4s
     0     0  197.82665    0   20  254.05493  197.82665  22.1%     -    4s
     0     0  197.82665    0   20  254.05493  197.82665  22.1%     -    4s
H    0     0                     246.2957379  197.82665  19.7%     -    5s
     0     0  197.82665    0   17  246.29574  197.82665  19.7%     -    6s
H    0     0                     224.8510712  197.82665  12.0%     -   31s
     0     2  197.82665    0   17  224.85107  197.82665  12.0%     -   32s
    63    94  205.27338    6   15  224.85107  202.84066  9.79%   834   35s
H   99   130                     224.6853081  203.19534  9.56%   703   65s
H  100   130                     224.5522600  203.19534  9.51%   702   65s
  1166   555     cutoff   15       224.55226  203.98207  9.16%   388   70s
  1247   570  224.51412   15    8  224.55226  203.98207  9.16%   386   85s
  2728   786  219.82226   12   12  224.55226  209.28957  6.80%   342   90s
  5031   980     cutoff   13       224.55226  215.35745  4.09%   300   95s
  7091  1188  221.33051   11   10  224.55226  218.06182  2.89%   272  124s
  7503  1200  223.70001   14    8  224.55226  218.27303  2.80%   267  125s
  8091  1219  223.61548   15    6  224.55226  218.73760  2.59%   261  151s
 11030  1160     cutoff   13       224.55226  220.56226  1.78%   235  155s

Cutting planes:
  Learned: 8
  Gomory: 2
  Implied bound: 197
  MIR: 592
  Relax-and-lift: 13

Explored 15184 nodes (3195114 simplex iterations) in 158.55 seconds (197.57 work units)
Thread count was 36 (of 36 available processors)

Solution count 8: 224.552 224.685 224.851 ... 316.708

Optimal solution found (tolerance 1.00e-02)
Best objective 2.245522600351e+02, best bound 2.223925187032e+02, gap 0.9618%

Gurobi 11.0.0 (linux64) logging started Wed Apr 10 22:14:22 2024

Set parameter LogFile to value "/lustre1/scratch/348/vsc34888/JointResearch/05.Models/06.Benchmarking/E.Representative_days_based_on_Line_Benefits_OptModel/RTS24_ByStages_nc80/openStarNet_RTS24_ByStages_nc80.log"
Set parameter Method to value 2
Set parameter MIPFocus to value 1
Set parameter Presolve to value 2
Set parameter RINS to value 100
Set parameter MIPGap to value 0.01
Set parameter Threads to value 36
Set parameter TimeLimit to value 259200
Set parameter IterationLimit to value 760000000
Gurobi Optimizer version 11.0.0 build v11.0.0rc2 (linux64 - "Rocky Linux 8.8 (Green Obsidian)")

CPU model: Intel(R) Xeon(R) Gold 6240 CPU @ 2.60GHz, instruction set [SSE2|AVX|AVX2|AVX512]
Thread count: 36 physical cores, 36 logical processors, using up to 36 threads

Optimize a model with 31123 rows, 18737 columns and 73860 nonzeros
Model fingerprint: 0xa2a19f10
Coefficient statistics:
  Matrix range     [1e-03, 9e+02]
  Objective range  [1e+00, 1e+00]
  Bounds range     [4e-04, 3e+00]
  RHS range        [4e-04, 4e+01]
Presolve removed 26261 rows and 10567 columns
Presolve time: 0.03s
Presolved: 4862 rows, 8238 columns, 21492 nonzeros

Ordering time: 0.00s

Barrier statistics:
 AA' NZ     : 1.104e+04
 Factor NZ  : 3.646e+04 (roughly 4 MB of memory)
 Factor Ops : 4.607e+05 (less than 1 second per iteration)
 Threads    : 1

                  Objective                Residual
Iter       Primal          Dual         Primal    Dual     Compl     Time
   0   1.60361694e+06 -1.18974519e+08  6.16e+00 3.58e+03  6.28e+04     0s
   1   1.18957277e+05 -7.40479949e+07  3.87e-01 6.49e-11  8.26e+03     0s
   2   5.70235335e+04 -2.05789013e+07  1.16e-01 1.13e-10  1.92e+03     0s
   3   3.63326673e+04 -3.88472679e+06  1.33e-02 4.37e-11  3.14e+02     0s
   4   2.87375365e+04 -3.03161505e+05  6.61e-04 4.00e-11  2.57e+01     0s
   5   1.49046703e+04 -7.96808460e+04  1.19e-04 3.86e-10  7.32e+00     0s
   6   5.21595654e+03 -2.37668609e+04  2.60e-05 1.46e-11  2.24e+00     0s
   7   1.14159087e+03 -4.16126890e+03  2.18e-06 1.46e-11  4.10e-01     0s
   8   5.37300254e+02 -7.42458942e+02  3.28e-07 7.28e-12  9.90e-02     0s
   9   3.81637310e+02 -1.22880977e+02  1.35e-07 7.28e-12  3.90e-02     0s
  10   2.93238337e+02  8.17047996e+01  5.12e-08 7.28e-12  1.64e-02     0s
  11   2.56312245e+02  1.61663028e+02  2.16e-08 7.28e-12  7.32e-03     0s
  12   2.40913565e+02  1.97948619e+02  1.07e-08 1.46e-11  3.32e-03     0s
  13   2.30462288e+02  2.15962013e+02  3.56e-09 7.28e-12  1.12e-03     0s
  14   2.25136617e+02  2.22434856e+02  2.35e-10 7.28e-12  2.09e-04     0s
  15   2.24794236e+02  2.23654402e+02  8.35e-11 7.28e-12  8.82e-05     0s
  16   2.24636161e+02  2.24188806e+02  2.65e-11 7.28e-12  3.46e-05     0s
  17   2.24585022e+02  2.24475400e+02  9.63e-12 3.64e-12  8.48e-06     0s
  18   2.24557271e+02  2.24542708e+02  1.76e-12 7.28e-12  1.13e-06     0s
  19   2.24552345e+02  2.24551949e+02  1.84e-12 1.46e-11  3.06e-08     0s
  20   2.24552261e+02  2.24552252e+02  4.96e-12 2.91e-11  7.58e-10     0s
  21   2.24552260e+02  2.24552260e+02  3.55e-12 7.28e-12  7.61e-13     0s

Barrier solved model in 21 iterations and 0.10 seconds (0.10 work units)
Optimal objective 2.24552260e+02

Crossover log...

     873 DPushes remaining with DInf 0.0000000e+00                 0s
       0 DPushes remaining with DInf 0.0000000e+00                 0s

     272 PPushes remaining with PInf 0.0000000e+00                 0s
       0 PPushes remaining with PInf 0.0000000e+00                 0s

  Push phase complete: Pinf 0.0000000e+00, Dinf 1.8081764e-12      0s

Iteration    Objective       Primal Inf.    Dual Inf.      Time
     295    2.2455226e+02   0.000000e+00   0.000000e+00      0s

Use crossover to convert LP symmetric solution to basic solution...
Crossover log...

       0 DPushes remaining with DInf 0.0000000e+00                 0s

     180 PPushes remaining with PInf 0.0000000e+00                 0s
       0 PPushes remaining with PInf 0.0000000e+00                 0s

  Push phase complete: Pinf 0.0000000e+00, Dinf 3.3176291e-12      0s

Iteration    Objective       Primal Inf.    Dual Inf.      Time
     513    2.2455226e+02   0.000000e+00   0.000000e+00      0s

Solved in 513 iterations and 0.14 seconds (0.12 work units)
Optimal objective  2.245522600e+02
